(set-logic HORN)
(declare-fun state (Int (Array Int Int) (Array Int Int) (Array Int Int) (Array Int Int) Int Int (Array Int Int) (Array Int Int) Int Int Int Int Int Int Int Int Int Int Int Int Int Int Int Int Int Int Bool Bool Bool Bool Bool (Array Int Int)) Bool)
(assert (forall ((|A_22| Int) (|B_22| (Array Int Int)) (|C_22| (Array Int Int)) (|D_22| (Array Int Int)) (|E_22| (Array Int Int)) (|F_22| Int) (|G_22| Int) (|H_22| (Array Int Int)) (|I_22| (Array Int Int)) (|J_22| Int) (|K_22| Int) (|L_22| Int) (|M_22| Int) (|N_22| Int) (|O_22| Int) (|P_22| Int) (|Q_22| Int) (|R_22| Int) (|S_22| Int) (|T_22| Int) (|U_22| Int) (|V_22| Int) (|W_22| Int) (|X_22| Int) (|Y_22| Int) (|Z_22| Int) (|A1_22| Int) (|C1_12| Bool) (|.loc.5| Bool) (|.loc.6| Bool) (|.loc.7| Bool) (|.loc.8| Bool) (|C1_0| (Array Int Int)) (|.x.614| Int) (|.x.612| (Array Int Int)) (|.x.610| Int) (|.x.608| (Array Int Int)) (|.x.604| Int) (|.x.606| (Array Int Int)) (|.x.605| (Array Int Int)) (|B1_22| Bool) (|.x.615| Int) (|.x.621| Int) (|.x.623| Int) (|.x.624| Int) (|.x.626| Int) (|.x.628| Int) (|.loc.11| Bool) (|.loc.10| Bool) (|.x.627| Int) (|.x.616| Int) (|.x.629| Int) (|.loc.9| Bool) (|.x.622| Int) (|.x.620| Int) (|.loc.12| Bool) (|.x.617| Int) (|.x.607| (Array Int Int)) (|.x.618| Int) (|.x.630| Int) (|.x.625| Int) (|.x.619| Int) (|.x.613| Int) (|.x.609| Int) (|.x.611| (Array Int Int)) (|.xtv.1| (Array Int Int))) (=> (and (and (and (and .loc.5 (not .loc.6)) (not .loc.7)) (not .loc.8)) (and (and (and (and (and (= D_22 E_22) (not C1_12)) (= F_22 G_22)) (= J_22 K_22)) (= H_22 I_22)) (= B_22 C_22))) (state |A_22| |B_22| |C_22| |D_22| |E_22| |F_22| |G_22| |H_22| |I_22| |J_22| |K_22| |L_22| |M_22| |N_22| |O_22| |P_22| |Q_22| |R_22| |S_22| |T_22| |U_22| |V_22| |W_22| |X_22| |Y_22| |Z_22| |A1_22| |C1_12| |.loc.5| |.loc.6| |.loc.7| |.loc.8| |C1_0|))))
(assert (forall ((|A_22| Int) (|B_22| (Array Int Int)) (|C_22| (Array Int Int)) (|D_22| (Array Int Int)) (|E_22| (Array Int Int)) (|F_22| Int) (|G_22| Int) (|H_22| (Array Int Int)) (|I_22| (Array Int Int)) (|J_22| Int) (|K_22| Int) (|L_22| Int) (|M_22| Int) (|N_22| Int) (|O_22| Int) (|P_22| Int) (|Q_22| Int) (|R_22| Int) (|S_22| Int) (|T_22| Int) (|U_22| Int) (|V_22| Int) (|W_22| Int) (|X_22| Int) (|Y_22| Int) (|Z_22| Int) (|A1_22| Int) (|C1_12| Bool) (|.loc.5| Bool) (|.loc.6| Bool) (|.loc.7| Bool) (|.loc.8| Bool) (|C1_0| (Array Int Int)) (|.x.614| Int) (|.x.612| (Array Int Int)) (|.x.610| Int) (|.x.608| (Array Int Int)) (|.x.604| Int) (|.x.606| (Array Int Int)) (|.x.605| (Array Int Int)) (|B1_22| Bool) (|.x.615| Int) (|.x.621| Int) (|.x.623| Int) (|.x.624| Int) (|.x.626| Int) (|.x.628| Int) (|.loc.11| Bool) (|.loc.10| Bool) (|.x.627| Int) (|.x.616| Int) (|.x.629| Int) (|.loc.9| Bool) (|.x.622| Int) (|.x.620| Int) (|.loc.12| Bool) (|.x.617| Int) (|.x.607| (Array Int Int)) (|.x.618| Int) (|.x.630| Int) (|.x.625| Int) (|.x.619| Int) (|.x.613| Int) (|.x.609| Int) (|.x.611| (Array Int Int)) (|.xtv.1| (Array Int Int))) (=> (and (state |A_22| |B_22| |C_22| |D_22| |E_22| |F_22| |G_22| |H_22| |I_22| |J_22| |K_22| |L_22| |M_22| |N_22| |O_22| |P_22| |Q_22| |R_22| |S_22| |T_22| |U_22| |V_22| |W_22| |X_22| |Y_22| |Z_22| |A1_22| |C1_12| |.loc.5| |.loc.6| |.loc.7| |.loc.8| |C1_0|) (let ((.def_43 (not .loc.6))) (let ((.def_45 (not .loc.7))) (let ((.def_47 (not .loc.8))) (let ((.def_79 (= B_22 .x.605))) (let ((.def_83 (= L_22 .x.615))) (let ((.def_86 (= R_22 .x.621))) (let ((.def_89 (= T_22 .x.623))) (let ((.def_92 (= U_22 .x.624))) (let ((.def_95 (= W_22 .x.626))) (let ((.def_98 (= Y_22 .x.628))) (let ((.def_100 (not .loc.5))) (let ((.def_112 (= C1_12 B1_22))) (let ((.def_119 (not .loc.10))) (let ((.def_122 (= M_22 0))) (let ((.def_124 (and .def_79 .def_83))) (let ((.def_129 (and .def_98 (and .def_95 (and .def_92 (and .def_89 (and .def_86 .def_124))))))) (let ((.def_133 (not .loc.11))) (let ((.def_139 (= X_22 .x.627))) (let ((.def_141 (= M_22 .x.616))) (let ((.def_144 (= Z_22 .x.629))) (let ((.def_147 (not .loc.9))) (let ((.def_163 (select D_22 W_22))) (let ((.def_168 (<= 100000 Q_22))) (let ((.def_183 (= S_22 .x.622))) (let ((.def_185 (= Q_22 .x.620))) (let ((.def_193 (and .def_124 .def_141))) (let ((.def_194 (and .def_86 .def_193))) (let ((.def_229 (and C1_12 .def_79))) (let ((.def_240 (and .def_144 (and .def_98 (and .def_139 (and .def_95 (and .def_92 (and .def_89 (and .def_183 (and .def_86 (and .def_185 (and .def_141 (and .def_83 .def_229))))))))))))) (let ((.def_259 (and .def_144 (and .def_98 (and .def_139 (and .def_95 (and .def_92 (and .def_89 (and .def_183 (and .def_86 (and .def_185 .def_193))))))))))) (let ((.def_280 (not .loc.12))) (let ((.def_285 (and .def_100 (and .loc.7 (and .loc.6 .def_259))))) (let ((.def_292 (<= 100000 O_22))) (let ((.def_293 (or C1_12 .def_292))) (let ((.def_297 (= N_22 .x.617))) (let ((.def_299 (= D_22 .x.607))) (let ((.def_302 (= O_22 .x.618))) (let ((.def_305 (= A1_22 .x.630))) (let ((.def_316 (not .def_292))) (let ((.def_327 (= (+ O_22 (* (- 1) .x.618)) (- 1)))) (let ((.def_328 (or B1_22 .def_327))) (let ((.def_337 (and .def_297 (and .def_141 (and .def_83 (and .def_79 .def_299)))))) (let ((.def_338 (and .def_302 .def_337))) (let ((.def_348 (and .def_305 (and .def_144 (and .def_98 (and .def_139 (and .def_95 (and .def_92 (and .def_89 (and .def_183 (and .def_86 (and .def_185 .def_338)))))))))))) (let ((.def_364 (and .def_302 (and .def_297 (and .def_141 (and .def_83 (and .def_229 .def_299))))))) (let ((.def_374 (and .def_305 (and .def_144 (and .def_98 (and .def_139 (and .def_95 (and .def_92 (and .def_89 (and .def_183 (and .def_86 (and .def_185 .def_364)))))))))))) (let ((.def_404 (= .x.618 0))) (let ((.def_405 (or C1_12 .def_404))) (let ((.def_430 (= V_22 .x.625))) (let ((.def_432 (= P_22 .x.619))) (let ((.def_436 (select D_22 T_22))) (let ((.def_443 (and .def_193 .def_297))) (let ((.def_598 (store C1_0 .x.623 1))) (and (and (= K_22 .x.614) (and (= I_22 .x.612) (and (= G_22 .x.610) (and (= E_22 .x.608) (and (= A_22 .x.604) (= C_22 .x.606)))))) (or (and (or (or (or (or (or (and (or (or (or (or (or (or (and (or (or (and (or (or (or (and .def_45 (or (and (or (and (or (and (or (and (and (and (and (and (and (and (and .def_79 B1_22) .def_83) .def_86) .def_89) .def_92) .def_95) .def_98) .def_100) (and (or C1_12 (and (= .x.624 0) (= .x.605 (store (store B_22 T_22 0) W_22 0)))) (and (and .loc.5 (or B1_22 (= .x.621 .x.624))) .def_112))) (and (and .loc.6 .loc.11) .def_119)) (and (or C1_12 .def_122) (and .def_43 (and (and .def_112 (and .loc.10 (and .loc.5 .def_129))) .def_133)))) (and (and (and .def_139 .def_141) .def_144) .def_147)) (and (or C1_12 (and (= .x.627 (ite (= (+ Q_22 (* (- 1) .x.629)) (- 42)) 1 0)) (and (= .x.627 .x.616) (and (= .x.629 (select .def_163 (+ (* 4 Q_22) Y_22))) (not .def_168))))) (and .def_43 (and .def_133 (and .def_112 (and .def_119 (and .loc.9 (and .def_100 .def_129)))))))) (and .loc.8 (and .def_183 .def_185))) (and (or B1_22 (= (+ Q_22 (* (- 1) .x.620)) (- 1))) (and .def_47 (and .def_43 (and .def_133 (and .def_112 (and .def_119 (and .def_147 (and .def_100 (and .def_98 (and .def_139 (and .def_95 (and .def_92 (and .def_89 .def_194))))))))))))))) (and (or C1_12 (= .x.620 0)) (and .def_47 (and .def_133 (and .def_112 (and .def_119 (and .def_147 (and .loc.7 (and .loc.6 (and .loc.5 (and .def_144 (and .def_98 (and .def_139 (and .def_95 (and .def_92 (and .def_89 (and .def_183 .def_194))))))))))))))))) (and .def_43 (and .def_133 (and .def_112 (and .loc.10 (and .loc.9 (and .def_45 (and .def_100 (and .loc.8 .def_240))))))))) (and (or C1_12 .def_168) (and .def_43 (and .def_133 (and .def_112 (and .loc.10 (and .loc.9 (and .def_45 (and .def_100 (and .loc.8 .def_259)))))))))) .loc.12) (and (and .def_47 (and .def_112 (and .loc.11 (and .loc.10 (and .loc.9 (and .def_100 (and .loc.7 (and .loc.6 .def_240)))))))) .def_280)) (and (and .def_280 (and .def_47 (and .def_112 (and .loc.11 (and .loc.10 (and .loc.9 .def_285)))))) .def_293)) (and (and (and .def_297 .def_299) .def_302) .def_305)) (and (or C1_12 (and (= .x.607 (store D_22 W_22 (store .def_163 (+ (* 4 O_22) Y_22) (+ O_22 (select .def_163 (+ (* 4 O_22) Y_22)))))) .def_316)) (and (and .def_280 (and .def_47 (and .def_112 (and .def_147 (and .loc.11 (and .loc.10 .def_285)))))) .def_328))) (and (or C1_12 (not .def_122)) (and .def_280 (and .def_43 (and .def_133 (and .def_112 (and .def_119 (and .def_147 (and .def_45 (and .loc.8 (and .loc.5 .def_348))))))))))) (and .def_280 (and .def_133 (and .def_112 (and .def_119 (and .def_147 (and .def_45 (and .def_100 (and .loc.8 (and .loc.6 .def_374)))))))))) (and (and .def_280 (and .def_47 (and .def_43 (and .def_112 (and .def_147 (and .loc.11 (and .loc.10 (and .loc.7 (and .loc.5 (and .def_305 (and .def_144 (and .def_98 (and .def_139 (and .def_95 (and .def_92 (and .def_89 (and .def_183 (and .def_86 (and .def_185 .def_337))))))))))))))))))) .def_405)) (and .def_280 (and .def_47 (and .def_43 (and .def_112 (and .def_119 (and .loc.11 (and .loc.9 (and .def_100 (and .loc.7 .def_374)))))))))) (and .def_293 (and .def_280 (and .def_47 (and .def_43 (and .def_112 (and .def_119 (and .loc.11 (and .loc.9 (and .def_100 (and .loc.7 .def_348))))))))))) (and .def_430 .def_432)) (and (or C1_12 (and .def_316 (= .x.607 (store D_22 W_22 (store .def_163 (+ (* 4 O_22) Y_22) (select .def_436 (+ L_22 (* 4 O_22)))))))) (and .def_328 (and .def_280 (and .def_47 (and .def_43 (and .def_112 (and .def_119 (and .def_147 (and .loc.11 (and .def_100 (and .loc.7 (and .def_305 (and .def_144 (and .def_98 (and .def_139 (and .def_95 (and .def_92 (and .def_89 (and .def_183 (and .def_86 (and .def_185 .def_443)))))))))))))))))))))) (and .def_405 (and .def_280 (and .def_47 (and .def_112 (and .def_119 (and .def_147 (and .loc.11 (and .def_45 (and .loc.6 (and .loc.5 (and .def_305 (and .def_144 (and .def_98 (and .def_139 (and .def_95 (and .def_430 (and .def_92 (and .def_89 (and .def_183 (and .def_86 (and .def_185 (and .def_337 .def_432))))))))))))))))))))))) (and .def_280 (and .def_47 (and .def_133 (and .def_112 (and .loc.10 (and .loc.9 (and .def_45 (and .def_100 (and .loc.6 (and .def_305 (and .def_144 (and .def_98 (and .def_139 (and .def_95 (and .def_430 (and .def_92 (and .def_89 (and .def_183 (and .def_86 (and .def_185 (and .def_364 .def_432)))))))))))))))))))))) (and .def_293 (and .def_280 (and .def_47 (and .def_133 (and .def_112 (and .loc.10 (and .loc.9 (and .def_45 (and .def_100 (and .loc.6 (and .def_305 (and .def_144 (and .def_98 (and .def_139 (and .def_95 (and .def_430 (and .def_92 (and .def_89 (and .def_183 (and .def_86 (and .def_185 (and .def_338 .def_432))))))))))))))))))))))) (and (or C1_12 (and (= .x.607 (store D_22 T_22 (store .def_436 (+ L_22 (* 4 O_22)) 42))) (and .def_316 .def_327))) (and .def_280 (and .def_47 (and .def_133 (and .def_112 (and .def_147 (and .loc.10 (and .def_45 (and .def_100 (and .loc.6 (and .def_305 (and .def_144 (and .def_98 (and .def_139 (and .def_95 (and .def_430 (and .def_92 (and .def_89 (and .def_183 (and .def_86 (and .def_185 (and .def_432 .def_443))))))))))))))))))))))) (and (= J_22 .x.613) (and (= F_22 .x.609) (= H_22 .x.611)))) (and (or C1_12 (and (and (= .x.613 0) (= .x.609 0)) (= C1_0 (store B_22 0 0)))) (and (or B1_22 (and (and (and (and (and (and (and .def_404 (and (and (and (not (<= .x.604 .x.623)) (not (<= .x.604 .x.626))) (not (= .x.626 0))) (not (= .x.623 0)))) (= .x.615 0)) (= .x.628 0)) (= (select C1_0 .x.623) 0)) (= (select .def_598 .x.626) 0)) (= .x.605 (store .def_598 .x.626 1))) (= .x.611 (store (store H_22 .x.623 400000) .x.626 400000)))) (and .def_280 (and .def_47 (and .def_43 (and .def_133 (and .def_112 (and .def_147 (and .loc.10 (and .def_45 (and .loc.5 (and .def_139 (and .def_86 (and .def_141 .def_299)))))))))))))))))))))))))))))))))))))))))))))))))))))))))))))))))))))) (state |.x.604| |.x.605| |.x.606| |.x.607| |.x.608| |.x.609| |.x.610| |.x.611| |.x.612| |.x.613| |.x.614| |.x.615| |.x.616| |.x.617| |.x.618| |.x.619| |.x.620| |.x.621| |.x.622| |.x.623| |.x.624| |.x.625| |.x.626| |.x.627| |.x.628| |.x.629| |.x.630| |B1_22| |.loc.9| |.loc.10| |.loc.11| |.loc.12| |.xtv.1|))))
(assert (forall ((|A_22| Int) (|B_22| (Array Int Int)) (|C_22| (Array Int Int)) (|D_22| (Array Int Int)) (|E_22| (Array Int Int)) (|F_22| Int) (|G_22| Int) (|H_22| (Array Int Int)) (|I_22| (Array Int Int)) (|J_22| Int) (|K_22| Int) (|L_22| Int) (|M_22| Int) (|N_22| Int) (|O_22| Int) (|P_22| Int) (|Q_22| Int) (|R_22| Int) (|S_22| Int) (|T_22| Int) (|U_22| Int) (|V_22| Int) (|W_22| Int) (|X_22| Int) (|Y_22| Int) (|Z_22| Int) (|A1_22| Int) (|C1_12| Bool) (|.loc.5| Bool) (|.loc.6| Bool) (|.loc.7| Bool) (|.loc.8| Bool) (|C1_0| (Array Int Int)) (|.x.614| Int) (|.x.612| (Array Int Int)) (|.x.610| Int) (|.x.608| (Array Int Int)) (|.x.604| Int) (|.x.606| (Array Int Int)) (|.x.605| (Array Int Int)) (|B1_22| Bool) (|.x.615| Int) (|.x.621| Int) (|.x.623| Int) (|.x.624| Int) (|.x.626| Int) (|.x.628| Int) (|.loc.11| Bool) (|.loc.10| Bool) (|.x.627| Int) (|.x.616| Int) (|.x.629| Int) (|.loc.9| Bool) (|.x.622| Int) (|.x.620| Int) (|.loc.12| Bool) (|.x.617| Int) (|.x.607| (Array Int Int)) (|.x.618| Int) (|.x.630| Int) (|.x.625| Int) (|.x.619| Int) (|.x.613| Int) (|.x.609| Int) (|.x.611| (Array Int Int)) (|.xtv.1| (Array Int Int))) (=> (state |A_22| |B_22| |C_22| |D_22| |E_22| |F_22| |G_22| |H_22| |I_22| |J_22| |K_22| |L_22| |M_22| |N_22| |O_22| |P_22| |Q_22| |R_22| |S_22| |T_22| |U_22| |V_22| |W_22| |X_22| |Y_22| |Z_22| |A1_22| |C1_12| |.loc.5| |.loc.6| |.loc.7| |.loc.8| |C1_0|) (not (and C1_12 (and .loc.8 (and .loc.7 (and (not .loc.6) (not .loc.5)))))))))
(check-sat)
